TInc = 5;
TMax_hours = 8;
TMax_minutes = 0;

% subjective setup
NSubjective = 3;
subj_minutes = [20, 20, 20];

% performance setup
NRounds = 3;
NTables = 2;

% judging groups
NGroups = 2;
group_counts = [1, 3];

alpha_perf_minutes = 5;

ct_minutes = 15;
pct_minutes = 45;
